c generated by sgen
p cnf 117 244
-2 -3 -4 0
-1 -3 -4 0
-1 -2 -4 0
-1 -2 -3 0
-6 -7 -8 0
-5 -7 -8 0
-5 -6 -8 0
-5 -6 -7 0
-10 -11 -12 0
-9 -11 -12 0
-9 -10 -12 0
-9 -10 -11 0
-14 -15 -16 0
-13 -15 -16 0
-13 -14 -16 0
-13 -14 -15 0
-18 -19 -20 0
-17 -19 -20 0
-17 -18 -20 0
-17 -18 -19 0
-22 -23 -24 0
-21 -23 -24 0
-21 -22 -24 0
-21 -22 -23 0
-26 -27 -28 0
-25 -27 -28 0
-25 -26 -28 0
-25 -26 -27 0
-30 -31 -32 0
-29 -31 -32 0
-29 -30 -32 0
-29 -30 -31 0
-34 -35 -36 0
-33 -35 -36 0
-33 -34 -36 0
-33 -34 -35 0
-38 -39 -40 0
-37 -39 -40 0
-37 -38 -40 0
-37 -38 -39 0
-42 -43 -44 0
-41 -43 -44 0
-41 -42 -44 0
-41 -42 -43 0
-46 -47 -48 0
-45 -47 -48 0
-45 -46 -48 0
-45 -46 -47 0
-50 -51 -52 0
-49 -51 -52 0
-49 -50 -52 0
-49 -50 -51 0
-54 -55 -56 0
-53 -55 -56 0
-53 -54 -56 0
-53 -54 -55 0
-58 -59 -60 0
-57 -59 -60 0
-57 -58 -60 0
-57 -58 -59 0
-62 -63 -64 0
-61 -63 -64 0
-61 -62 -64 0
-61 -62 -63 0
-66 -67 -68 0
-65 -67 -68 0
-65 -66 -68 0
-65 -66 -67 0
-70 -71 -72 0
-69 -71 -72 0
-69 -70 -72 0
-69 -70 -71 0
-74 -75 -76 0
-73 -75 -76 0
-73 -74 -76 0
-73 -74 -75 0
-78 -79 -80 0
-77 -79 -80 0
-77 -78 -80 0
-77 -78 -79 0
-82 -83 -84 0
-81 -83 -84 0
-81 -82 -84 0
-81 -82 -83 0
-86 -87 -88 0
-85 -87 -88 0
-85 -86 -88 0
-85 -86 -87 0
-90 -91 -92 0
-89 -91 -92 0
-89 -90 -92 0
-89 -90 -91 0
-94 -95 -96 0
-93 -95 -96 0
-93 -94 -96 0
-93 -94 -95 0
-98 -99 -100 0
-97 -99 -100 0
-97 -98 -100 0
-97 -98 -99 0
-102 -103 -104 0
-101 -103 -104 0
-101 -102 -104 0
-101 -102 -103 0
-106 -107 -108 0
-105 -107 -108 0
-105 -106 -108 0
-105 -106 -107 0
-110 -111 -112 0
-109 -111 -112 0
-109 -110 -112 0
-109 -110 -111 0
-113 -114 -115 0
-113 -114 -116 0
-113 -114 -117 0
-113 -115 -116 0
-113 -115 -117 0
-113 -116 -117 0
-114 -115 -116 0
-114 -115 -117 0
-114 -116 -117 0
-115 -116 -117 0
67 10 110 0
46 10 110 0
46 67 110 0
46 67 10 0
111 29 23 0
84 29 23 0
84 111 23 0
84 111 29 0
74 49 13 0
72 49 13 0
72 74 13 0
72 74 49 0
71 68 3 0
31 68 3 0
31 71 3 0
31 71 68 0
96 33 81 0
12 33 81 0
12 96 81 0
12 96 33 0
40 100 1 0
109 100 1 0
109 40 1 0
109 40 100 0
105 17 93 0
112 17 93 0
112 105 93 0
112 105 17 0
24 43 65 0
16 43 65 0
16 24 65 0
16 24 43 0
113 50 97 0
103 50 97 0
103 113 97 0
103 113 50 0
77 45 58 0
39 45 58 0
39 77 58 0
39 77 45 0
5 35 85 0
27 35 85 0
27 5 85 0
27 5 35 0
116 89 28 0
80 89 28 0
80 116 28 0
80 116 89 0
94 78 66 0
99 78 66 0
99 94 66 0
99 94 78 0
48 82 106 0
115 82 106 0
115 48 106 0
115 48 82 0
104 20 87 0
91 20 87 0
91 104 87 0
91 104 20 0
8 95 92 0
63 95 92 0
63 8 92 0
63 8 95 0
108 2 60 0
117 2 60 0
117 108 60 0
117 108 2 0
41 76 47 0
86 76 47 0
86 41 47 0
86 41 76 0
4 11 90 0
14 11 90 0
14 4 90 0
14 4 11 0
51 61 88 0
21 61 88 0
21 51 88 0
21 51 61 0
22 37 36 0
101 37 36 0
101 22 36 0
101 22 37 0
52 53 19 0
7 53 19 0
7 52 19 0
7 52 53 0
70 64 34 0
114 64 34 0
114 70 34 0
114 70 64 0
9 69 55 0
57 69 55 0
57 9 55 0
57 9 69 0
25 59 30 0
15 59 30 0
15 25 30 0
15 25 59 0
73 18 62 0
79 18 62 0
79 73 62 0
79 73 18 0
56 107 38 0
75 107 38 0
75 56 38 0
75 56 107 0
6 98 32 0
42 98 32 0
42 6 32 0
42 6 98 0
54 83 26 0
54 83 102 0
54 83 44 0
54 26 102 0
54 26 44 0
54 102 44 0
83 26 102 0
83 26 44 0
83 102 44 0
26 102 44 0
